1  3
2  3
3  8
4  8
5  1
6  1
7  1
8  1
9  13
10  7
11  13
12  13
13  1
14  7
15  1
16  13
17  13
18  7
19  7
20  2
21  1
22  7
23  7
24  1
25  7
26  13
27  11
28  3
29  2
30  10
31  10
32  10
33  3
34  13
35  1
36  10
37  1
38  2
39  2
40  2
41  13
42  13
43  1
44  1
45  13
46  2
47  2
48  7
49  2
50  1
51  13
52  3
53  1
54  7
55  13
56  13
57  10
58  7
59  1
60  13
61  1
62  4
63  13
64  4
65  2
66  13
67  7
68  8
69  8
70  8
71  6
72  10
73  10
74  10
75  10
76  10
77  3
78  3
79  7
80  10
81  3
82  10
83  3
84  7
85  4
86  4
87  4
88  7
89  7
90  4
91  13
92  7
93  4
94  4
95  4
96  4
97  2
98  6
99  6
100  4
101  6
102  6
103  12
104  12
105  4
106  4
107  12
108  12
109  13
110  13
111  13
112  7
113  1
114  1
115  7
116  10
117  3
118  7
119  3
120  1
121  13
122  1
123  4
124  2
125  2
126  2
127  4
128  1
129  1
130  7
131  2
132  6
133  5
134  5
135  11
136  9
137  9
138  12
139  3